81
0 42 59 8 72 17 44 20 13 32 
60 78 1 33 27 74 36 26 12 5 
76 61 63 34 2 68 30 69 64 18 
25 65 62 67 54 21 16 35 23 66 
73 47 3 37 6 70 79 80 7 11 
51 58 15 45 19 52 55 75 28 31 
56 40 46 49 48 41 14 10 22 53 
43 38 77 50 24 29 71 9 4 39 
57 
